proyfinal/src/viki/013/andrea/andrea-localstore/experimentInOfficeAgust.take6/worker_10/a99f4a35-be01-4665-ab0f-59ef03687f0e.als.cnf.out
Reading from standard input... Use '--help' for help.
============================[ Problem Statistics ]=============================
|                                                                             |
|  Number of variables:         87638                                         |
|  Number of clauses:          161767                                         |
|  Parse time:                   0.04 s                                       |
|                                                                             |
============================[ Search Statistics ]==============================
| Conflicts |          ORIGINAL         |          LEARNT          | Progress |
|           |    Vars  Clauses Literals |    Limit  Clauses Lit/Cl |          |
===============================================================================
|       100 |   63805   110363   275640 |    40466      100     73 | 27.195 % |
|       250 |   63805   110363   275640 |    44513      250     49 | 27.195 % |
|       475 |   63804   110319   275550 |    48964      473     61 | 27.196 % |
|       812 |   63804   110319   275550 |    53860      810     70 | 27.196 % |
|      1318 |   63804   110319   275550 |    59246     1316     60 | 27.196 % |
|      2077 |   63804   110319   275550 |    65171     2075     58 | 27.196 % |
|      3216 |   63804   110319   275550 |    71688     3214     71 | 27.196 % |
|      4924 |   63804   110319   275550 |    78857     4922     74 | 27.196 % |
|      7486 |   63804   110319   275550 |    86743     7484     81 | 27.196 % |
|     11330 |   63804   110319   275550 |    95417    11328     89 | 27.196 % |
===============================================================================
restarts              : 61
conflicts             : 14308          (6622 /sec)
decisions             : 66091          (0.00 % random) (30589 /sec)
propagations          : 21832016       (10104402 /sec)
conflict literals     : 1310489        (44.68 % deleted)
Memory used           : 26.39 MB
CPU time              : 2.16064 s

INDETERMINATE
